(set-logic QF_S)
(declare-fun var_0xINPUT_86016 () String)
(assert (and (= (len var_0xINPUT_86016) 0) (= (len var_0xINPUT_86016) 0) (not (= var_0xINPUT_86016 "6JX7G3VKFq"))))
(check-sat var_0xINPUT_86016)